research/drat/n4_k8.cnf
p cnf 187 572
-2 1 3 6 0
-7 6 8 11 0
-10 9 11 14 0
-1 2 0
-14 13 15 10 0
-6 5 7 2 0
-4 3 8 0
-9 10 5 0
-13 14 0
-12 11 16 0
-3 2 4 0
-16 15 12 0
-11 10 12 7 0
-5 6 9 0
-15 14 16 0
-8 7 4 0
-17 5 0
-17 6 0
-17 7 0
-17 8 0
-18 13 0
-18 14 0
-18 15 0
-18 16 0
17 18 0
-19 2 0
-19 6 0
-19 7 0
-19 8 0
-20 5 0
-20 9 0
-20 10 0
-20 11 0
-21 10 0
-21 14 0
-21 15 0
-21 16 0
19 20 21 0
-22 1 0
-22 2 0
-22 3 0
-22 6 0
-23 6 0
-23 7 0
-23 8 0
-23 11 0
-24 9 0
-24 10 0
-24 11 0
-24 14 0
22 23 24 0
-25 1 0
-25 2 0
-25 3 0
-25 4 0
-26 9 0
-26 10 0
-26 11 0
-26 12 0
25 26 0
-27 4 0
-27 6 0
-27 7 0
-27 8 0
-28 7 0
-28 9 0
-28 10 0
-28 11 0
-29 12 0
-29 14 0
-29 15 0
-29 16 0
27 28 29 0
-30 2 0
-30 3 0
-30 4 0
-30 6 0
-31 5 0
-31 6 0
-31 7 0
-31 9 0
-32 10 0
-32 11 0
-32 12 0
-32 14 0
30 31 32 0
-33 2 0
-33 5 0
-33 6 0
-33 9 0
-34 4 0
-34 7 0
-34 8 0
-34 11 0
-35 7 0
-35 10 0
-35 11 0
-35 14 0
33 34 35 0
-36 2 0
-36 3 0
-36 5 0
-36 6 0
-37 7 0
-37 8 0
-37 10 0
-37 11 0
-38 10 0
-38 11 0
-38 13 0
-38 14 0
36 37 38 0
-39 2 0
-39 3 0
-39 6 0
-39 7 0
-40 5 0
-40 6 0
-40 9 0
-40 10 0
-41 7 0
-41 8 0
-41 11 0
-41 12 0
-42 10 0
-42 11 0
-42 14 0
-42 15 0
39 40 41 42 0
-43 2 0
-43 5 0
-43 6 0
-43 7 0
-44 7 0
-44 10 0
-44 11 0
-44 12 0
-45 10 0
-45 13 0
-45 14 0
-45 15 0
43 44 45 0
-46 2 0
-46 3 0
-46 4 0
-46 8 0
-47 5 0
-47 6 0
-47 7 0
-47 11 0
-48 10 0
-48 11 0
-48 12 0
-48 16 0
46 47 48 0
-49 1 0
-49 2 0
-49 5 0
-49 6 0
-50 3 0
-50 4 0
-50 7 0
-50 8 0
-51 6 0
-51 7 0
-51 10 0
-51 11 0
-52 9 0
-52 10 0
-52 13 0
-52 14 0
-53 11 0
-53 12 0
-53 15 0
-53 16 0
49 50 51 52 53 0
-54 1 0
-54 2 0
-54 6 0
-54 7 0
-55 6 0
-55 7 0
-55 11 0
-55 12 0
-56 9 0
-56 10 0
-56 14 0
-56 15 0
54 55 56 0
-57 2 0
-57 6 0
-57 7 0
-57 11 0
-58 5 0
-58 9 0
-58 10 0
-58 14 0
-59 7 0
-59 11 0
-59 12 0
-59 16 0
57 58 59 0
-84 60 0
-85 61 0
-86 62 0
-87 63 0
-88 64 0
-89 65 0
-90 66 0
-91 67 0
-76 60 0
-77 61 0
-78 62 0
-79 63 0
-80 64 0
-81 65 0
-82 66 0
-83 67 0
-76 -84 61 0
-76 -85 62 0
-76 -86 63 0
-76 -87 64 0
-76 -88 65 0
-76 -89 66 0
-76 -90 67 0
-76 -91 68 0
-77 -84 62 0
-77 -85 63 0
-77 -86 64 0
-77 -87 65 0
-77 -88 66 0
-77 -89 67 0
-77 -90 68 0
-77 -91 69 0
-78 -84 63 0
-78 -85 64 0
-78 -86 65 0
-78 -87 66 0
-78 -88 67 0
-78 -89 68 0
-78 -90 69 0
-78 -91 70 0
-79 -84 64 0
-79 -85 65 0
-79 -86 66 0
-79 -87 67 0
-79 -88 68 0
-79 -89 69 0
-79 -90 70 0
-79 -91 71 0
-80 -84 65 0
-80 -85 66 0
-80 -86 67 0
-80 -87 68 0
-80 -88 69 0
-80 -89 70 0
-80 -90 71 0
-80 -91 72 0
-81 -84 66 0
-81 -85 67 0
-81 -86 68 0
-81 -87 69 0
-81 -88 70 0
-81 -89 71 0
-81 -90 72 0
-81 -91 73 0
-82 -84 67 0
-82 -85 68 0
-82 -86 69 0
-82 -87 70 0
-82 -88 71 0
-82 -89 72 0
-82 -90 73 0
-82 -91 74 0
-83 -84 68 0
-83 -85 69 0
-83 -86 70 0
-83 -87 71 0
-83 -88 72 0
-83 -89 73 0
-83 -90 74 0
-83 -91 75 0
-96 84 0
-97 85 0
-98 86 0
-99 87 0
-92 84 0
-93 85 0
-94 86 0
-95 87 0
-92 -96 85 0
-92 -97 86 0
-92 -98 87 0
-92 -99 88 0
-93 -96 86 0
-93 -97 87 0
-93 -98 88 0
-93 -99 89 0
-94 -96 87 0
-94 -97 88 0
-94 -98 89 0
-94 -99 90 0
-95 -96 88 0
-95 -97 89 0
-95 -98 90 0
-95 -99 91 0
-102 96 0
-103 97 0
-100 96 0
-101 97 0
-100 -102 97 0
-100 -103 98 0
-101 -102 98 0
-101 -103 99 0
16 102 0
15 102 0
15 16 103 0
14 100 0
13 100 0
13 14 101 0
-106 92 0
-107 93 0
-104 92 0
-105 93 0
-104 -106 93 0
-104 -107 94 0
-105 -106 94 0
-105 -107 95 0
12 106 0
11 106 0
11 12 107 0
10 104 0
9 104 0
9 10 105 0
-112 76 0
-113 77 0
-114 78 0
-115 79 0
-108 76 0
-109 77 0
-110 78 0
-111 79 0
-108 -112 77 0
-108 -113 78 0
-108 -114 79 0
-108 -115 80 0
-109 -112 78 0
-109 -113 79 0
-109 -114 80 0
-109 -115 81 0
-110 -112 79 0
-110 -113 80 0
-110 -114 81 0
-110 -115 82 0
-111 -112 80 0
-111 -113 81 0
-111 -114 82 0
-111 -115 83 0
-118 112 0
-119 113 0
-116 112 0
-117 113 0
-116 -118 113 0
-116 -119 114 0
-117 -118 114 0
-117 -119 115 0
8 118 0
7 118 0
7 8 119 0
6 116 0
5 116 0
5 6 117 0
-122 108 0
-123 109 0
-120 108 0
-121 109 0
-120 -122 109 0
-120 -123 110 0
-121 -122 110 0
-121 -123 111 0
4 122 0
3 122 0
3 4 123 0
2 120 0
1 120 0
1 2 121 0
-68 0
-148 124 0
-149 125 0
-150 126 0
-151 127 0
-152 128 0
-153 129 0
-154 130 0
-155 131 0
-140 124 0
-141 125 0
-142 126 0
-143 127 0
-144 128 0
-145 129 0
-146 130 0
-147 131 0
-140 -148 125 0
-140 -149 126 0
-140 -150 127 0
-140 -151 128 0
-140 -152 129 0
-140 -153 130 0
-140 -154 131 0
-140 -155 132 0
-141 -148 126 0
-141 -149 127 0
-141 -150 128 0
-141 -151 129 0
-141 -152 130 0
-141 -153 131 0
-141 -154 132 0
-141 -155 133 0
-142 -148 127 0
-142 -149 128 0
-142 -150 129 0
-142 -151 130 0
-142 -152 131 0
-142 -153 132 0
-142 -154 133 0
-142 -155 134 0
-143 -148 128 0
-143 -149 129 0
-143 -150 130 0
-143 -151 131 0
-143 -152 132 0
-143 -153 133 0
-143 -154 134 0
-143 -155 135 0
-144 -148 129 0
-144 -149 130 0
-144 -150 131 0
-144 -151 132 0
-144 -152 133 0
-144 -153 134 0
-144 -154 135 0
-144 -155 136 0
-145 -148 130 0
-145 -149 131 0
-145 -150 132 0
-145 -151 133 0
-145 -152 134 0
-145 -153 135 0
-145 -154 136 0
-145 -155 137 0
-146 -148 131 0
-146 -149 132 0
-146 -150 133 0
-146 -151 134 0
-146 -152 135 0
-146 -153 136 0
-146 -154 137 0
-146 -155 138 0
-147 -148 132 0
-147 -149 133 0
-147 -150 134 0
-147 -151 135 0
-147 -152 136 0
-147 -153 137 0
-147 -154 138 0
-147 -155 139 0
-160 148 0
-161 149 0
-162 150 0
-163 151 0
-156 148 0
-157 149 0
-158 150 0
-159 151 0
-156 -160 149 0
-156 -161 150 0
-156 -162 151 0
-156 -163 152 0
-157 -160 150 0
-157 -161 151 0
-157 -162 152 0
-157 -163 153 0
-158 -160 151 0
-158 -161 152 0
-158 -162 153 0
-158 -163 154 0
-159 -160 152 0
-159 -161 153 0
-159 -162 154 0
-159 -163 155 0
-166 160 0
-167 161 0
-164 160 0
-165 161 0
-164 -166 161 0
-164 -167 162 0
-165 -166 162 0
-165 -167 163 0
-16 166 0
-15 166 0
-15 -16 167 0
-14 164 0
-13 164 0
-13 -14 165 0
-170 156 0
-171 157 0
-168 156 0
-169 157 0
-168 -170 157 0
-168 -171 158 0
-169 -170 158 0
-169 -171 159 0
-12 170 0
-11 170 0
-11 -12 171 0
-10 168 0
-9 168 0
-9 -10 169 0
-176 140 0
-177 141 0
-178 142 0
-179 143 0
-172 140 0
-173 141 0
-174 142 0
-175 143 0
-172 -176 141 0
-172 -177 142 0
-172 -178 143 0
-172 -179 144 0
-173 -176 142 0
-173 -177 143 0
-173 -178 144 0
-173 -179 145 0
-174 -176 143 0
-174 -177 144 0
-174 -178 145 0
-174 -179 146 0
-175 -176 144 0
-175 -177 145 0
-175 -178 146 0
-175 -179 147 0
-182 176 0
-183 177 0
-180 176 0
-181 177 0
-180 -182 177 0
-180 -183 178 0
-181 -182 178 0
-181 -183 179 0
-8 182 0
-7 182 0
-7 -8 183 0
-6 180 0
-5 180 0
-5 -6 181 0
-186 172 0
-187 173 0
-184 172 0
-185 173 0
-184 -186 173 0
-184 -187 174 0
-185 -186 174 0
-185 -187 175 0
-4 186 0
-3 186 0
-3 -4 187 0
-2 184 0
-1 184 0
-1 -2 185 0
-132 0
