research/drat/n4_k8.drat
-76 -91 0
d -76 -91 68 0
-77 -90 0
d -77 -90 68 0
-78 -89 0
d -78 -89 68 0
-79 -88 0
d -79 -88 68 0
-80 -87 0
d -80 -87 68 0
-81 -86 0
d -81 -86 68 0
-82 -85 0
d -82 -85 68 0
-83 -84 0
d -83 -84 68 0
-140 -155 0
d -140 -155 132 0
-141 -154 0
d -141 -154 132 0
-142 -153 0
d -142 -153 132 0
-143 -152 0
d -143 -152 132 0
-144 -151 0
d -144 -151 132 0
-145 -150 0
d -145 -150 132 0
-146 -149 0
d -146 -149 132 0
-147 -148 0
d -147 -148 132 0
101 14 0
2 121 0
165 -13 0
185 -1 0
124 0
d -148 124 0
d -140 124 0
188 -52 0
188 -45 0
188 -38 0
188 -18 0
188 100 0
-188 52 45 38 18 -100 0
14 -188 0
13 -188 0
d -188 52 45 38 18 -100 0
d -52 14 0
d -52 13 0
d -45 14 0
d -45 13 0
d -38 14 0
d -38 13 0
d -18 14 0
d -18 13 0
d 14 100 0
d 13 100 0
189 -18 0
189 -53 0
189 -29 0
189 -21 0
189 102 0
-189 18 53 29 21 -102 0
16 -189 0
15 -189 0
d -189 18 53 29 21 -102 0
d -18 16 0
d -18 15 0
d -53 16 0
d -53 15 0
d -29 16 0
d -29 15 0
d -21 16 0
d -21 15 0
d 16 102 0
d 15 102 0
190 -52 0
190 -58 0
190 -56 0
190 -40 0
190 -28 0
190 -26 0
190 -24 0
190 -20 0
190 104 0
-190 52 58 56 40 28 26 24 20 -104 0
10 -190 0
9 -190 0
d -190 52 58 56 40 28 26 24 20 -104 0
d -52 10 0
d -52 9 0
d -58 10 0
d -58 9 0
d -56 10 0
d -56 9 0
d -40 10 0
d -40 9 0
d -28 10 0
d -28 9 0
d -26 10 0
d -26 9 0
d -24 10 0
d -24 9 0
d -20 10 0
d -20 9 0
d 10 104 0
d 9 104 0
191 -53 0
191 -26 0
191 -59 0
191 -55 0
191 -48 0
191 -44 0
191 -41 0
191 -32 0
191 106 0
-191 53 26 59 55 48 44 41 32 -106 0
12 -191 0
11 -191 0
d -191 53 26 59 55 48 44 41 32 -106 0
d -53 12 0
d -53 11 0
d -26 12 0
d -26 11 0
d -59 12 0
d -59 11 0
d -55 12 0
d -55 11 0
d -48 12 0
d -48 11 0
d -44 12 0
d -44 11 0
d -41 12 0
d -41 11 0
d -32 12 0
d -32 11 0
d 12 106 0
d 11 106 0
192 -40 0
192 -49 0
192 -47 0
192 -43 0
192 -36 0
192 -33 0
192 -31 0
192 -17 0
192 116 0
-192 40 49 47 43 36 33 31 17 -116 0
6 -192 0
5 -192 0
d -192 40 49 47 43 36 33 31 17 -116 0
d -40 6 0
d -40 5 0
d -49 6 0
d -49 5 0
d -47 6 0
d -47 5 0
d -43 6 0
d -43 5 0
d -36 6 0
d -36 5 0
d -33 6 0
d -33 5 0
d -31 6 0
d -31 5 0
d -17 6 0
d -17 5 0
d 6 116 0
d 5 116 0
193 -41 0
193 -17 0
193 -50 0
193 -37 0
193 -34 0
193 -27 0
193 -23 0
193 -19 0
193 118 0
-193 41 17 50 37 34 27 23 19 -118 0
8 -193 0
7 -193 0
d -193 41 17 50 37 34 27 23 19 -118 0
d -41 8 0
d -41 7 0
d -17 8 0
d -17 7 0
d -50 8 0
d -50 7 0
d -37 8 0
d -37 7 0
d -34 8 0
d -34 7 0
d -27 8 0
d -27 7 0
d -23 8 0
d -23 7 0
d -19 8 0
d -19 7 0
d 8 118 0
d 7 118 0
194 -49 0
194 -54 0
194 -25 0
194 -22 0
194 120 0
-194 49 54 25 22 -120 0
2 -194 0
1 -194 0
d -194 49 54 25 22 -120 0
d -49 2 0
d -49 1 0
d -54 2 0
d -54 1 0
d -25 2 0
d -25 1 0
d -22 2 0
d -22 1 0
d 2 120 0
d 1 120 0
195 -50 0
195 -25 0
195 -46 0
195 -30 0
195 122 0
-195 50 25 46 30 -122 0
4 -195 0
3 -195 0
d -195 50 25 46 30 -122 0
d -50 4 0
d -50 3 0
d -25 4 0
d -25 3 0
d -46 4 0
d -46 3 0
d -30 4 0
d -30 3 0
d 4 122 0
d 3 122 0
196 -30 0
196 -57 0
196 -39 0
196 -19 0
-196 30 57 39 19 0
2 -196 0
6 -196 0
d -196 30 57 39 19 0
d -30 2 0
d -30 6 0
d -57 2 0
d -57 6 0
d -39 2 0
d -39 6 0
d -19 2 0
d -19 6 0
197 -32 0
197 -42 0
197 -35 0
197 -21 0
-197 32 42 35 21 0
10 -197 0
14 -197 0
d -197 32 42 35 21 0
d -32 10 0
d -32 14 0
d -42 10 0
d -42 14 0
d -35 10 0
d -35 14 0
d -21 10 0
d -21 14 0
198 -28 0
198 -20 0
198 -24 0
-198 28 20 24 0
11 -198 0
190 -198 0
d -198 28 20 24 0
d -28 11 0
d 190 -28 0
d -20 11 0
d 190 -20 0
d -24 11 0
d 190 -24 0
199 -47 0
199 -43 0
199 -31 0
-199 47 43 31 0
7 -199 0
192 -199 0
d -199 47 43 31 0
d -47 7 0
d 192 -47 0
d -43 7 0
d 192 -43 0
d -31 7 0
d 192 -31 0
200 -57 0
200 -51 0
200 -35 0
-200 57 51 35 0
7 -200 0
11 -200 0
d -200 57 51 35 0
d -57 7 0
d -57 11 0
d -51 7 0
d -51 11 0
d -35 7 0
d -35 11 0
201 -59 0
201 -55 0
201 -44 0
-201 59 55 44 0
7 -201 0
191 -201 0
d -201 59 55 44 0
d -59 7 0
d 191 -59 0
d -55 7 0
d 191 -55 0
d -44 7 0
d 191 -44 0
d -91 67 0
d -83 67 0
d -90 67 -76 0
d -89 67 -77 0
d -88 67 -78 0
d -87 67 -79 0
d -86 67 -80 0
d -81 -85 67 0
d -82 -84 67 0
d -155 131 0
d -147 131 0
d -154 131 -140 0
d -153 131 -141 0
d 131 -152 -142 0
d 131 -151 -143 0
d 131 -144 -150 0
d 131 -145 -149 0
d 131 -146 -148 0
d -90 66 0
d -82 66 0
d -89 66 -76 0
d -88 66 -77 0
d -87 66 -78 0
d -86 66 -79 0
d -85 66 -80 0
d -81 -84 66 0
d -154 130 0
d -146 130 0
d -153 130 -140 0
d 130 -152 -141 0
d 130 -151 -142 0
d 130 -143 -150 0
d 130 -144 -149 0
d 130 -145 -148 0
d -89 65 0
d -81 65 0
d -88 65 -76 0
d -87 65 -77 0
d -86 65 -78 0
d -85 65 -79 0
d -84 65 -80 0
d -77 -91 69 0
d -78 -90 69 0
d -79 -89 69 0
d -80 -88 69 0
d -81 -87 69 0
d -82 -86 69 0
d -83 -85 69 0
d -153 129 0
d -145 129 0
d -152 129 -140 0
d 129 -151 -141 0
d 129 -150 -142 0
d 129 -143 -149 0
d 129 -144 -148 0
d -155 133 -141 0
d -142 -154 133 0
d -153 133 -143 0
d -144 -152 133 0
d -145 -151 133 0
d -146 -150 133 0
d -147 -149 133 0
d -88 64 0
d -80 64 0
d -87 64 -76 0
d -86 64 -77 0
d -85 64 -78 0
d -84 64 -79 0
d -78 -91 70 0
d -79 -90 70 0
d -80 -89 70 0
d -81 -88 70 0
d -82 -87 70 0
d -83 -86 70 0
d -152 128 0
d -144 128 0
d 128 -151 -140 0
d 128 -150 -141 0
d 128 -149 -142 0
d 128 -143 -148 0
d -142 -155 134 0
d -143 -154 134 0
d -144 -153 134 0
d -145 -152 134 0
d -146 -151 134 0
d -147 -150 134 0
d -87 63 0
d -79 63 0
d -86 63 -76 0
d -85 63 -77 0
d -84 63 -78 0
d -79 -91 71 0
d -80 -90 71 0
d -81 -89 71 0
d -82 -88 71 0
d -83 -87 71 0
d -151 127 0
d -143 127 0
d 127 -150 -140 0
d 127 -149 -141 0
d 127 -148 -142 0
d -143 -155 135 0
d -144 -154 135 0
d -145 -153 135 0
d -146 -152 135 0
d -147 -151 135 0
d -86 62 0
d -78 62 0
d -85 62 -76 0
d -84 62 -77 0
d -80 -91 72 0
d -81 -90 72 0
d -82 -89 72 0
d -83 -88 72 0
d -150 126 0
d -142 126 0
d 126 -149 -140 0
d 126 -148 -141 0
d -144 -155 136 0
d -145 -154 136 0
d -146 -153 136 0
d -147 -152 136 0
d -85 61 0
d -77 61 0
d -84 61 -76 0
d -81 -91 73 0
d -82 -90 73 0
d -83 -89 73 0
d -149 125 0
d -141 125 0
d 125 -148 -140 0
d -145 -155 137 0
d -146 -154 137 0
d -147 -153 137 0
d -84 60 0
d -76 60 0
d -82 -91 74 0
d -83 -90 74 0
d -146 -155 138 0
d -147 -154 138 0
d -83 -91 75 0
d -147 -155 139 0
-84 -115 -111 0
d -115 83 -111 0
d -83 -84 0
-76 -95 -99 0
d -95 -99 91 0
d -76 -91 0
-148 -179 -175 0
d -179 -175 147 0
d -147 -148 0
-140 -163 -159 0
d -163 -159 155 0
d -140 -155 0
18 192 0
18 193 0
d 17 18 0
d 192 -17 0
d 193 -17 0
193 21 20 0
196 21 20 0
d 21 20 19 0
d 193 -19 0
d 196 -19 0
14 22 23 0
198 22 23 0
d 24 22 23 0
d -24 14 0
d 198 -24 0
26 194 0
26 195 0
d 25 26 0
d 194 -25 0
d 195 -25 0
7 27 29 0
198 27 29 0
d 27 29 28 0
d -28 7 0
d 198 -28 0
195 32 31 0
196 32 31 0
d 32 30 31 0
d 195 -30 0
d 196 -30 0
197 33 34 0
200 33 34 0
d 35 33 34 0
d 197 -35 0
d 200 -35 0
190 42 39 41 0
192 42 39 41 0
d 40 42 39 41 0
d 190 -40 0
d 192 -40 0
2 45 44 0
199 45 44 0
d 45 44 43 0
d -43 2 0
d 199 -43 0
11 48 46 0
199 48 46 0
d 48 46 47 0
d -47 11 0
d 199 -47 0
192 53 51 50 52 0
194 53 51 50 52 0
d 53 49 51 50 52 0
d 192 -49 0
d 194 -49 0
6 56 54 0
201 56 54 0
d 56 55 54 0
d -55 6 0
d 201 -55 0
196 58 59 0
200 58 59 0
d 58 59 57 0
d 196 -57 0
d 200 -57 0
-112 -95 -99 0
-108 -95 -99 0
d -76 -95 -99 0
d -112 76 0
d -108 76 0
-85 -115 -110 0
-85 -114 -111 0
d -82 -85 0
d -115 82 -110 0
d -114 82 -111 0
-96 -115 -111 0
-92 -115 -111 0
d -84 -115 -111 0
d -96 84 0
d -92 84 0
-77 -94 -99 0
-77 -95 -98 0
d -77 -90 0
d -94 -99 90 0
d -95 -98 90 0
-176 -163 -159 0
-172 -163 -159 0
d -140 -163 -159 0
d -176 140 0
d -172 140 0
-149 -179 -174 0
-149 -178 -175 0
d -146 -149 0
d -179 -174 146 0
d -178 -175 146 0
-160 -179 -175 0
-156 -179 -175 0
d -148 -179 -175 0
d -160 148 0
d -156 148 0
-141 -163 -158 0
-141 -162 -159 0
d -141 -154 0
d -163 -158 154 0
d -162 -159 154 0
2 38 37 0
3 38 37 0
192 38 37 0
d 38 36 37 0
d -36 2 0
d -36 3 0
d 192 -36 0
-86 -115 -109 0
-86 -114 -110 0
-86 -113 -111 0
d -81 -86 0
d -115 81 -109 0
d -114 81 -110 0
d -113 81 -111 0
-78 -99 -93 0
-78 -94 -98 0
-78 -95 -97 0
d -78 -89 0
d -99 89 -93 0
d -94 -98 89 0
d -95 -97 89 0
188 96 0
188 -102 97 0
188 -103 98 0
d 188 100 0
d -100 96 0
d -102 97 -100 0
d -103 98 -100 0
189 96 0
189 -101 98 0
189 188 97 0
d 189 102 0
d -102 96 0
d -101 98 -102 0
d 188 -102 97 0
97 15 16 0
15 16 -101 99 0
15 16 188 98 0
d 15 103 16 0
d -103 97 0
d -101 99 -103 0
d 188 -103 98 0
190 92 0
190 93 -106 0
190 94 -107 0
d 190 104 0
d -104 92 0
d 93 -104 -106 0
d 94 -104 -107 0
93 9 10 0
9 10 94 -106 0
9 10 95 -107 0
d 9 105 10 0
d -105 93 0
d 94 -105 -106 0
d 95 -105 -107 0
191 92 0
191 190 93 0
191 9 10 94 0
d 191 106 0
d -106 92 0
d 190 93 -106 0
d 9 10 94 -106 0
93 11 12 0
11 12 190 94 0
11 12 9 10 95 0
d 11 107 12 0
d -107 93 0
d 190 94 -107 0
d 9 10 95 -107 0
192 112 0
192 113 -118 0
192 -119 114 0
d 192 116 0
d -116 112 0
d 113 -116 -118 0
d -119 114 -116 0
113 6 5 0
6 5 114 -118 0
6 5 -119 115 0
d 6 117 5 0
d -117 113 0
d 114 -117 -118 0
d -119 115 -117 0
193 112 0
193 192 113 0
193 6 5 114 0
d 193 118 0
d -118 112 0
d 192 113 -118 0
d 6 5 114 -118 0
113 8 7 0
8 7 192 114 0
8 7 6 5 115 0
d 8 119 7 0
d -119 113 0
d 192 -119 114 0
d 6 5 -119 115 0
194 108 0
194 109 -122 0
194 110 -123 0
d 194 120 0
d -120 108 0
d 109 -122 -120 0
d 110 -123 -120 0
195 108 0
195 110 -121 0
195 194 109 0
d 195 122 0
d -122 108 0
d 110 -122 -121 0
d 194 109 -122 0
109 4 3 0
4 3 111 -121 0
4 3 194 110 0
d 4 123 3 0
d -123 109 0
d 111 -123 -121 0
d 194 110 -123 0
-150 -179 -173 0
-150 -178 -174 0
-150 -177 -175 0
d -145 -150 0
d -179 145 -173 0
d -178 -174 145 0
d -177 -175 145 0
-142 -163 -157 0
-142 -162 -158 0
-142 -161 -159 0
d -142 -153 0
d -163 -157 153 0
d -162 -158 153 0
d -161 -159 153 0
161 -16 -15 0
-16 -15 162 -164 0
-16 -15 163 -165 0
d -16 -15 167 0
d -167 161 0
d -167 162 -164 0
d -167 163 -165 0
157 -10 -9 0
-10 -9 -170 158 0
-10 -9 -171 159 0
d -10 169 -9 0
d -169 157 0
d -170 -169 158 0
d -171 -169 159 0
157 -12 -11 0
-12 -11 158 -168 0
-12 -11 -10 -9 159 0
d -12 -11 171 0
d -171 157 0
d -171 158 -168 0
d -10 -9 -171 159 0
177 -5 -6 0
-5 -6 178 -182 0
-5 -6 -183 179 0
d -5 181 -6 0
d -181 177 0
d 178 -182 -181 0
d -181 -183 179 0
177 -8 -7 0
-8 -7 178 -180 0
-8 -7 -5 -6 179 0
d -8 -7 183 0
d -183 177 0
d 178 -183 -180 0
d -5 -6 -183 179 0
173 -4 -3 0
-4 -3 174 -184 0
-4 -3 175 -185 0
d -4 -3 187 0
d -187 173 0
d 174 -187 -184 0
d 175 -187 -185 0
192 188 0
192 189 0
193 188 0
193 189 0
d 18 192 0
d 18 193 0
d 188 -18 0
d 189 -18 0
5 193 21 0
198 193 21 0
5 196 21 0
198 196 21 0
d 193 21 20 0
d 196 21 20 0
d -20 5 0
d 198 -20 0
194 190 0
194 191 0
195 190 0
195 191 0
d 26 194 0
d 26 195 0
d 190 -26 0
d 191 -26 0
9 195 32 0
199 195 32 0
9 196 32 0
199 196 32 0
d 195 32 31 0
d 196 32 31 0
d -31 9 0
d 199 -31 0
191 190 42 39 0
193 190 42 39 0
191 192 42 39 0
193 192 42 39 0
d 190 42 39 41 0
d 192 42 39 41 0
d 191 -41 0
d 193 -41 0
10 2 45 0
201 2 45 0
10 199 45 0
201 199 45 0
d 2 45 44 0
d 199 45 44 0
d -44 10 0
d 201 -44 0
193 192 53 51 52 0
195 192 53 51 52 0
193 194 53 51 52 0
195 194 53 51 52 0
d 192 53 51 50 52 0
d 194 53 51 50 52 0
d 193 -50 0
d 195 -50 0
16 196 58 0
201 196 58 0
16 200 58 0
201 200 58 0
d 196 58 59 0
d 200 58 59 0
d -59 16 0
d 201 -59 0
-87 -115 -108 0
-87 -114 -109 0
-87 -113 -110 0
-87 -112 -111 0
d -80 -87 0
d -115 80 -108 0
d -114 80 -109 0
d -113 80 -110 0
d 80 -112 -111 0
-79 -99 -92 0
-79 -98 -93 0
-79 -94 -97 0
-79 -95 -96 0
d -79 -88 0
d -99 88 -92 0
d -98 88 -93 0
d -94 -97 88 0
d -95 -96 88 0
-151 -179 -172 0
-151 -178 -173 0
-151 -174 -177 0
-151 -175 -176 0
d -144 -151 0
d -179 144 -172 0
d -178 144 -173 0
d -174 144 -177 0
d -175 144 -176 0
-143 -163 -156 0
-143 -162 -157 0
-143 -158 -161 0
-143 -159 -160 0
d -143 -152 0
d -163 152 -156 0
d -162 -157 152 0
d 152 -158 -161 0
d 152 -159 -160 0
6 56 0
d 6 56 54 0
6 201 56 0
7 201 56 0
194 201 56 0
d 201 56 54 0
d -54 6 0
d -54 7 0
d 194 -54 0
87 11 12 9 10 0
-112 -99 11 12 9 10 0
-108 -99 11 12 9 10 0
-77 -98 11 12 9 10 0
-78 -97 11 12 9 10 0
-79 -96 11 12 9 10 0
d 11 12 9 10 95 0
d -95 87 0
d -112 -95 -99 0
d -108 -95 -99 0
d -77 -95 -98 0
d -78 -95 -97 0
d -79 -95 -96 0
87 15 16 -101 0
-77 -94 15 16 -101 0
-78 -93 15 16 -101 0
-79 -92 15 16 -101 0
15 16 -101 -112 11 12 9 10 0
15 16 -101 -108 11 12 9 10 0
d 15 16 -101 99 0
d -99 87 0
d -77 -94 -99 0
d -78 -99 -93 0
d -79 -99 -92 0
d -112 -99 11 12 9 10 0
d -108 -99 11 12 9 10 0
79 4 3 -121 0
-85 -114 4 3 -121 0
-96 -115 4 3 -121 0
-92 -115 4 3 -121 0
-86 -113 4 3 -121 0
-87 -112 4 3 -121 0
d 4 3 111 -121 0
d -111 79 0
d -85 -114 -111 0
d -96 -115 -111 0
d -92 -115 -111 0
d -86 -113 -111 0
d -87 -112 -111 0
79 8 7 6 5 0
-85 -110 8 7 6 5 0
-86 -109 8 7 6 5 0
-87 -108 8 7 6 5 0
8 7 6 5 -96 4 3 -121 0
8 7 6 5 -92 4 3 -121 0
d 8 7 6 5 115 0
d -115 79 0
d -85 -115 -110 0
d -86 -115 -109 0
d -87 -115 -108 0
d -96 -115 4 3 -121 0
d -92 -115 4 3 -121 0
151 -12 -11 -10 -9 0
-176 -163 -12 -11 -10 -9 0
-172 -163 -12 -11 -10 -9 0
-141 -162 -12 -11 -10 -9 0
-142 -161 -12 -11 -10 -9 0
-143 -160 -12 -11 -10 -9 0
d -12 -11 -10 -9 159 0
d -159 151 0
d -176 -163 -159 0
d -172 -163 -159 0
d -141 -162 -159 0
d -142 -161 -159 0
d -143 -159 -160 0
151 -16 -15 -165 0
-141 -158 -16 -15 -165 0
-142 -157 -16 -15 -165 0
-143 -156 -16 -15 -165 0
-16 -15 -165 -176 -12 -11 -10 -9 0
-16 -15 -165 -172 -12 -11 -10 -9 0
d -16 -15 163 -165 0
d -163 151 0
d -141 -163 -158 0
d -142 -163 -157 0
d -143 -163 -156 0
d -176 -163 -12 -11 -10 -9 0
d -172 -163 -12 -11 -10 -9 0
143 -4 -3 -185 0
-149 -178 -4 -3 -185 0
-160 -179 -4 -3 -185 0
-156 -179 -4 -3 -185 0
-150 -177 -4 -3 -185 0
-151 -176 -4 -3 -185 0
d -4 -3 175 -185 0
d -175 143 0
d -149 -178 -175 0
d -160 -179 -175 0
d -156 -179 -175 0
d -150 -177 -175 0
d -151 -175 -176 0
143 -8 -7 -5 -6 0
-149 -174 -8 -7 -5 -6 0
-150 -173 -8 -7 -5 -6 0
-151 -172 -8 -7 -5 -6 0
-8 -7 -5 -6 -160 -4 -3 -185 0
-8 -7 -5 -6 -156 -4 -3 -185 0
d -8 -7 -5 -6 179 0
d -179 143 0
d -149 -179 -174 0
d -150 -179 -173 0
d -151 -179 -172 0
d -160 -179 -4 -3 -185 0
d -156 -179 -4 -3 -185 0
2 121 0
d 2 121 1 0
-194 2 0
-194 184 0
-194 185 0
-194 -2 185 0
184 -2 3 6 0
185 -2 3 6 0
-2 185 3 6 0
d 1 -194 0
d -2 1 3 6 0
d -1 2 0
d -1 184 0
d 185 -1 0
d -2 185 -1 0
d 2 -194 0
-194 185 0
d -194 -2 185 0
d -194 185 0
d -2 185 3 6 0
101 14 0
d 13 101 14 0
-188 14 0
-188 164 0
-188 165 0
-188 -14 165 0
164 15 -14 10 0
165 15 -14 10 0
-14 165 15 10 0
d 13 -188 0
d 13 15 -14 10 0
d -13 14 0
d -13 164 0
d 165 -13 0
d -14 165 -13 0
d 14 -188 0
-188 165 0
d -188 -14 165 0
d -188 165 0
d -14 165 15 10 0
10 2 0
d 10 2 45 0
10 199 0
d 10 199 45 0
10 201 2 0
10 201 199 0
15 201 2 0
15 201 199 0
188 201 2 0
188 201 199 0
d -45 10 0
d -45 15 0
d 188 -45 0
d 201 2 45 0
d 201 199 45 0
7 56 0
d 7 201 56 0
d 6 201 56 0
d 10 201 2 0
d 10 201 199 0
d 184 -2 3 6 0
d 164 15 -14 10 0
-170 150 -174 -185 0
170 -185 0
-192 -182 178 0
-182 178 -156 -174 0
-185 -186 0
d -185 174 -186 0
-174 194 0
188 -186 0
-8 178 177 0
-189 -186 0
-186 0
-4 0
-3 0
-27 0
-34 0
-195 0
109 0
-22 0
-39 0
-46 0
108 0
190 0
191 0
77 0
10 0
9 0
12 0
11 0
168 0
157 0
170 0
158 0
151 0
156 0
149 0
150 0
-172 -193 0
-192 -193 0
-193 0
-37 0
-23 0
112 0
188 0
189 0
38 0
14 0
198 0
78 0
164 0
165 0
16 0
15 0
160 0
161 0
166 0
-143 0
162 0
-176 0
-172 0
-142 0
-141 0
-182 0
-180 0
-184 0
-178 0
-174 0
-177 0
-173 0
-8 0
-7 0
-6 0
-5 0
-2 0
-194 0
-185 0
-199 0
-200 0
-201 0
56 0
113 0
29 0
-51 0
-192 0
-196 0
-58 0
21 0
114 0
79 0
-86 0
-87 0
-33 0
121 0
110 0
48 0
32 0
0
